p cnf 76 300
c p weight 34 0 0
c p weight -34 1 0
c p weight 35 1.0 0
c p weight -35 1 0
30 -29 27 0
30 -29 28 0
-30 29 27 0
-30 29 28 0
30 29 -27 -28 0
-30 -29 -27 -28 0
31 27 -28 0
31 -27 28 0
-31 27 28 0
-31 -27 -28 0
32 33 -30 0
32 -30 31 0
-32 33 30 0
-32 30 31 0
32 -30 -27 0
-32 30 -27 0
32 -33 30 27 -31 0
-32 -33 -30 27 -31 0
33 -27 31 0
-33 27 31 0
-34 31 0
33 -34 -27 0
-33 -34 27 0
33 34 27 -31 0
-33 34 -27 -31 0
-35 31 0
33 -35 27 0
-33 -35 -27 0
33 35 -27 -31 0
-33 35 27 -31 0
36 -32 33 0
36 -32 31 0
-36 32 33 0
-36 32 31 0
36 32 -33 -31 0
-36 -32 -33 -31 0
37 33 -31 0
37 -33 31 0
-37 33 31 0
-37 -33 -31 0
38 -36 33 0
38 -36 26 0
-38 36 33 0
-38 36 26 0
38 -36 25 -37 0
38 -36 -25 37 0
-38 36 25 -37 0
-38 36 -25 37 0
38 36 -33 25 37 -26 0
38 36 -33 -25 -37 -26 0
-38 -36 -33 25 37 -26 0
-38 -36 -33 -25 -37 -26 0
40 33 -25 0
40 -33 25 0
-40 33 25 0
-40 -33 -25 0
39 37 -26 0
39 -37 26 0
-39 37 26 0
-39 -37 -26 0
41 -38 40 0
41 -38 24 0
-41 38 40 0
-41 38 24 0
41 -38 23 -26 0
41 -38 -23 26 0
-41 38 23 -26 0
-41 38 -23 26 0
41 38 -40 23 26 -24 0
41 38 -40 -23 -26 -24 0
-41 -38 -40 23 26 -24 0
-41 -38 -40 -23 -26 -24 0
43 40 -23 0
43 -40 23 0
-43 40 23 0
-43 -40 -23 0
42 26 -24 0
42 -26 24 0
-42 26 24 0
-42 -26 -24 0
44 -41 43 0
44 -41 22 0
-44 41 43 0
-44 41 22 0
44 -41 21 -24 0
44 -41 -21 24 0
-44 41 21 -24 0
-44 41 -21 24 0
44 41 -43 21 24 -22 0
44 41 -43 -21 -24 -22 0
-44 -41 -43 21 24 -22 0
-44 -41 -43 -21 -24 -22 0
46 43 -21 0
46 -43 21 0
-46 43 21 0
-46 -43 -21 0
45 24 -22 0
45 -24 22 0
-45 24 22 0
-45 -24 -22 0
47 -44 46 0
47 -44 20 0
-47 44 46 0
-47 44 20 0
47 -44 19 -22 0
47 -44 -19 22 0
-47 44 19 -22 0
-47 44 -19 22 0
47 44 -46 19 22 -20 0
47 44 -46 -19 -22 -20 0
-47 -44 -46 19 22 -20 0
-47 -44 -46 -19 -22 -20 0
49 46 -19 0
49 -46 19 0
-49 46 19 0
-49 -46 -19 0
48 22 -20 0
48 -22 20 0
-48 22 20 0
-48 -22 -20 0
50 -47 49 0
50 -47 18 0
-50 47 49 0
-50 47 18 0
50 -47 17 -20 0
50 -47 -17 20 0
-50 47 17 -20 0
-50 47 -17 20 0
50 47 -49 17 20 -18 0
50 47 -49 -17 -20 -18 0
-50 -47 -49 17 20 -18 0
-50 -47 -49 -17 -20 -18 0
52 49 -17 0
52 -49 17 0
-52 49 17 0
-52 -49 -17 0
51 20 -18 0
51 -20 18 0
-51 20 18 0
-51 -20 -18 0
53 -50 52 0
53 -50 16 0
-53 50 52 0
-53 50 16 0
53 -50 15 -18 0
53 -50 -15 18 0
-53 50 15 -18 0
-53 50 -15 18 0
53 50 -52 15 18 -16 0
53 50 -52 -15 -18 -16 0
-53 -50 -52 15 18 -16 0
-53 -50 -52 -15 -18 -16 0
55 52 -15 0
55 -52 15 0
-55 52 15 0
-55 -52 -15 0
54 18 -16 0
54 -18 16 0
-54 18 16 0
-54 -18 -16 0
56 -53 55 0
56 -53 14 0
-56 53 55 0
-56 53 14 0
56 -53 13 -16 0
56 -53 -13 16 0
-56 53 13 -16 0
-56 53 -13 16 0
56 53 -55 13 16 -14 0
56 53 -55 -13 -16 -14 0
-56 -53 -55 13 16 -14 0
-56 -53 -55 -13 -16 -14 0
58 55 -13 0
58 -55 13 0
-58 55 13 0
-58 -55 -13 0
57 16 -14 0
57 -16 14 0
-57 16 14 0
-57 -16 -14 0
59 -56 58 0
59 -56 12 0
-59 56 58 0
-59 56 12 0
59 -56 11 -14 0
59 -56 -11 14 0
-59 56 11 -14 0
-59 56 -11 14 0
59 56 -58 11 14 -12 0
59 56 -58 -11 -14 -12 0
-59 -56 -58 11 14 -12 0
-59 -56 -58 -11 -14 -12 0
61 58 -11 0
61 -58 11 0
-61 58 11 0
-61 -58 -11 0
60 14 -12 0
60 -14 12 0
-60 14 12 0
-60 -14 -12 0
62 -59 61 0
62 -59 10 0
-62 59 61 0
-62 59 10 0
62 -59 9 -12 0
62 -59 -9 12 0
-62 59 9 -12 0
-62 59 -9 12 0
62 59 -61 9 12 -10 0
62 59 -61 -9 -12 -10 0
-62 -59 -61 9 12 -10 0
-62 -59 -61 -9 -12 -10 0
64 61 -9 0
64 -61 9 0
-64 61 9 0
-64 -61 -9 0
63 12 -10 0
63 -12 10 0
-63 12 10 0
-63 -12 -10 0
65 -62 64 0
65 -62 8 0
-65 62 64 0
-65 62 8 0
65 -62 7 -10 0
65 -62 -7 10 0
-65 62 7 -10 0
-65 62 -7 10 0
65 62 -64 7 10 -8 0
65 62 -64 -7 -10 -8 0
-65 -62 -64 7 10 -8 0
-65 -62 -64 -7 -10 -8 0
67 64 -7 0
67 -64 7 0
-67 64 7 0
-67 -64 -7 0
66 10 -8 0
66 -10 8 0
-66 10 8 0
-66 -10 -8 0
68 -65 67 0
68 -65 6 0
-68 65 67 0
-68 65 6 0
68 -65 5 -8 0
68 -65 -5 8 0
-68 65 5 -8 0
-68 65 -5 8 0
68 65 -67 5 8 -6 0
68 65 -67 -5 -8 -6 0
-68 -65 -67 5 8 -6 0
-68 -65 -67 -5 -8 -6 0
70 67 -5 0
70 -67 5 0
-70 67 5 0
-70 -67 -5 0
69 8 -6 0
69 -8 6 0
-69 8 6 0
-69 -8 -6 0
71 -68 70 0
71 -68 4 0
-71 68 70 0
-71 68 4 0
71 -68 3 -6 0
71 -68 -3 6 0
-71 68 3 -6 0
-71 68 -3 6 0
71 68 -70 3 6 -4 0
71 68 -70 -3 -6 -4 0
-71 -68 -70 3 6 -4 0
-71 -68 -70 -3 -6 -4 0
73 70 -3 0
73 -70 3 0
-73 70 3 0
-73 -70 -3 0
72 6 -4 0
72 -6 4 0
-72 6 4 0
-72 -6 -4 0
74 -71 73 0
74 -71 2 0
-74 71 73 0
-74 71 2 0
74 -71 1 -4 0
74 -71 -1 4 0
-74 71 1 -4 0
-74 71 -1 4 0
74 71 -73 1 4 -2 0
74 71 -73 -1 -4 -2 0
-74 -71 -73 1 4 -2 0
-74 -71 -73 -1 -4 -2 0
76 73 -1 0
76 -73 1 0
-76 73 1 0
-76 -73 -1 0
75 4 -2 0
75 -4 2 0
-75 4 2 0
-75 -4 -2 0
